0 45750 
1 44370 
2 44360 
3 43872 
4 43852 
5 42950 
6 41794 
7 40864 
8 40616 
9 39914 
10 39334 
11 38740 
12 37956 
13 36170 
14 34894 
15 33940 
16 33540 
17 32794 
18 31944 
19 31866 
20 31194 
21 30574 
22 30186 
23 30180 
24 29796 
25 28212 
26 26714 
27 26560 
28 26550 
29 26152 
30 26148 
31 25904 
32 25332 
33 25170 
34 24954 
35 23814 
36 23724 
37 22340 
38 21194 
39 21120 
40 20954 
41 20600 
42 20578 
43 20426 
44 20220 
45 16052 
46 16034 
47 15096 
48 14674 
49 14672 
50 14304 
51 14218 
52 14218 

